6493 4447
3119 6894
1710 7007
8676 7919
9853 9021
1950 960
5682 7685
9086 5520
6667 4132
5051 7803
562 934
7093 4124
9324 9031
4324 5134
5443 6844
7338 3189
4979 8622
7965 3046
6544 995
2873 1373
9560 3373
5597 4757
9601 4348
4297 7267
2054 4006
6255 8522
1796 3131
1257 4824
6743 6872
1048 3362
6989 6049
5864 3343
6703 1384
116 4239
2878 3525
785 5566
8455 2238
6613 5013
8414 9058
8010 4371
7082 312
6684 3127
9751 4581
3748 5659
1051 1847
1368 5401
9499 8130
9690 9412
8288 2087
4407 3278
